Set parameter TokenServer to value "opt-license.discovery.wisc.edu"
Set parameter TimeLimit to value 600
Gurobi Optimizer version 9.5.1 build v9.5.1rc2 (linux64)
Thread count: 40 physical cores, 80 logical processors, using up to 32 threads
Optimize a model with 1681 rows, 1600 columns and 6360 nonzeros
Model fingerprint: 0xb71d8174
Variable types: 0 continuous, 1600 integer (1600 binary)
Coefficient statistics:
  Matrix range     [1e+00, 1e+03]
  Objective range  [1e+00, 8e+00]
  Bounds range     [1e+00, 1e+00]
  RHS range        [1e+00, 4e+00]
Presolve removed 40 rows and 0 columns
Presolve time: 0.03s
Presolved: 1641 rows, 1600 columns, 6360 nonzeros
Variable types: 0 continuous, 1600 integer (1600 binary)
Found heuristic solution: objective 98.7293031

Root relaxation: objective 5.062090e+01, 805 iterations, 0.04 seconds (0.03 work units)

    Nodes    |    Current Node    |     Objective Bounds      |     Work
 Expl Unexpl |  Obj  Depth IntInf | Incumbent    BestBd   Gap | It/Node Time

     0     0   50.62090    0   68   98.72930   50.62090  48.7%     -    0s
H    0     0                      55.6809610   50.62090  9.09%     -    0s
H    0     0                      52.9727571   50.62090  4.44%     -    0s
H    0     0                      52.9634615   50.62090  4.42%     -    0s
     0     0   50.97037    0  101   52.96346   50.97037  3.76%     -    0s
     0     0   50.97037    0   68   52.96346   50.97037  3.76%     -    0s
     0     0   50.97557    0  101   52.96346   50.97557  3.75%     -    0s
     0     0   51.17300    0  126   52.96346   51.17300  3.38%     -    0s
H    0     0                      52.3869706   51.17300  2.32%     -    0s
     0     0   51.44422    0  159   52.38697   51.44422  1.80%     -    0s
     0     0   51.44422    0   58   52.38697   51.44422  1.80%     -    0s
     0     0   51.44422    0  127   52.38697   51.44422  1.80%     -    0s
     0     0   51.44422    0  135   52.38697   51.44422  1.80%     -    0s
     0     0   51.44422    0  135   52.38697   51.44422  1.80%     -    0s
     0     2   51.46322    0  134   52.38697   51.46322  1.76%     -    0s
H   22    12                      51.7273967   51.60737  0.23%  50.1    0s
H   30     3                      51.7273939   51.64433  0.16%  46.8    0s

Cutting planes:
  Gomory: 13
  MIR: 2
  StrongCG: 2
  GUB cover: 4

Explored 36 nodes (4625 simplex iterations) in 0.99 seconds (0.36 work units)
Thread count was 32 (of 80 available processors)

Solution count 6: 51.7274 52.387 52.9635 ... 98.7293

Optimal solution found (tolerance 1.00e-04)
Best objective 5.172739385852e+01, best bound 5.172537008887e+01, gap 0.0039%
